257449.0
3010
1 3 7 9 11 12 13 14 15 16 17 19 20 22 23 24 26 27 28 31 32 33 36 37 38 39 41 42 44 45 46 47 49 51 53 57 58 59 63 64 65 66 69 70 74 75 77 78 80 81 82 84 86 89 94 97 98 100 101 102 103 105 106 107 108 109 111 112 114 115 116 118 119 122 123 124 125 126 127 128 131 132 134 137 140 141 142 144 145 147 148 149 150 153 154 155 156 158 159 160 161 162 163 164 165 166 167 168 169 171 172 173 176 177 178 180 181 185 187 188 189 191 194 195 196 197 198 199 